Maximize
    20x1 + 10x2 + 25x3 +11x4 +5x5 + 50x6 + 15x7 + 12x8 + 6x9 + 5x10 + 4x11 + 30x12
Subject To
    c: 11x1 + 7x2 + 5x3 + 5x4 + 4x5 + 3x6 + 3x7 + 2x8 + 2x9 + 2x10 + 2x11 + 1x12 <= 20
Binary
    x1
    x2
    x3
    x4
    x5
    x6
    x7
    x8
    x9
    x10
    x11
    x12
End